JulietBench/Juliet_Based_Patch_Bench/linux/CWE-189-Numeric-Errors/CVE_2011_1746_b522f02184b413955f3bc952e3776ce41edc6355/solveragp_allocate_memory_Snippet.smt2
; benchmark generated from python API
(set-info :status unknown)
(declare-fun R () (_ BitVec 32))
(declare-fun rdi () (_ BitVec 64))
(declare-fun rsi () (_ BitVec 64))
(assert
 (let (($x214 (= (_ bv0 32) R)))
 (let ((?x6 ((_ extract 31 0) rdi)))
 (let ((?x10 ((_ sign_extend 32) ?x6)))
 (let ((?x9 (bvadd (_ bv50 64) rsi)))
 (let (($x113 (bvugt ?x9 ?x10)))
 (let (($x144 (and $x113 $x214)))
 (let (($x967 (= (_ bv50 32) R)))
 (let (($x11 (bvule ?x9 ?x10)))
 (let ((?x153 (bvadd rsi (_ bv50 64))))
 (let (($x152 (bvule rsi ?x153)))
 (let (($x971 (and $x152 $x11 $x967)))
 (let (($x961 (bvugt rsi ?x153)))
 (let (($x970 (and $x961 $x11 $x214)))
 (let (($x972 (or $x970 $x971 $x144)))
 (let (($x975 (not $x972)))
 (let (($x968 (and $x11 $x967)))
 (let (($x969 (or $x144 $x968)))
 (let (($x974 (not $x969)))
 (let (($x976 (and $x974 $x975)))
 (let (($x973 (and $x969 $x972)))
 (let (($x977 (or $x973 $x976)))
 (not $x977)))))))))))))))))))))))
(check-sat)
